unsat
unsat
sat
(
  (define-fun return () (_ BitVec 32)
    (_ bv2147483649 32))
  (define-fun x () (_ BitVec 32)
    (_ bv2147483648 32))
  (define-fun LOCAL_3__0_14 () (_ BitVec 32)
    (_ bv2147483648 32))
  (define-fun LOCAL_2__0_14 () Bool
    true)
  (define-fun LOCAL_4__0_14 () Bool
    false)
  (define-fun LOCAL_6__0_14 () (_ BitVec 32)
    (_ bv2147483648 32))
  (define-fun LOCAL_5__0_14 () (_ BitVec 32)
    (_ bv2147483648 32))
)
unsat
unsat
unsat
unsat
